(set-option :produce-models true)
(set-logic QF_UF)
(declare-fun p3() Bool)
(declare-fun p0() Bool)
(declare-fun p4() Bool)
(declare-fun p8() Bool)
(declare-fun p5() Bool)
(declare-fun p2() Bool)
(declare-fun p6() Bool)
(declare-fun p9() Bool)
(declare-fun p1() Bool)
(declare-fun p7() Bool)
(assert
(and (or p3 (not p0) p4) (or p4 p0 p8) (or p5 p2 (not p3)) (or (not p8) p8 p4) (or (not p4) p3 p2) (or p2 (not p6) p2) (or (not p3) p0 p9) (or (not p0) p5 (not p8)) (or (not p9) p4 (not p1)) (or (not p4) (not p0) p5) (or p9 p8 p9) (or p0 (not p4) p6) (or (not p4) p7 (not p4)) (or (not p5) (not p7) p3) (or p3 p8 (not p0)) (or (not p6) (not p7) p9) (or (not p1) p8 (not p4)) (or p7 p3 (not p5)) (or (not p9) (not p4) (not p0)) (or p1 (not p4) p8) (or (not p0) p5 p3) (or (not p7) (not p5) p5) (or (not p0) p8 p5) (or p0 (not p5) (not p1)) (or (not p7) (not p9) (not p2)) (or (not p1) (not p6) (not p5)) (or p7 p8 p4) (or p6 (not p3) p8) (or p8 p8 p5) (or p2 p0 (not p6)) (or p3 p8 p8) (or p9 (not p0) p2) (or (not p2) p0 (not p1)) (or p4 p0 (not p6)) (or (not p8) p0 (not p2)) (or (not p6) p3 p8) (or (not p1) p6 p5) (or p0 p6 p7) (or p0 (not p7) p4) (or p9 (not p9) p9) (or (not p4) p5 p2) (or p6 (not p4) (not p3)) (or p5 p4 p9) (or p2 (not p2) p2) (or p5 p9 p7) (or (not p9) p1 (not p9)) (or p0 (not p1) p7) (or p6 p8 p4) (or p9 (not p3) p6))
)
(check-sat)
(get-model)
